benchmarks_vrp/CMT11/tsp_classic/CMT11_7.vrp
NAME: CMT11_7
TYPE: CVRP
COMMENT: 1042.11 - Cluster Nr.7
DIMENSION: 5
CAPACITY: 200
EDGE_WEIGHT_TYPE: EUC_2D
NODE_COORD_TYPE: TWOD_COORDS
NODE_COORD_SECTION: 
4 93 89
1 10 45
2 99 89
5 94 86
3 95 80
DEPOT_SECTION: 
1
-1
DEMAND_SECTION: 
4 16
3 17
1 0
5 14
2 13
EOF
