benchmarks_vrp/CMT11/tsp_classic/CMT11_7.tour
NAME: CMT11_7 solution
TYPE: TOUR
TOUR_SECTION:
1 3 5 2 4 -1
-1
EOF